300
[60,69,78,88,91,95,110,111,115,120,121,123,127,131,133,136,139,140,143,145,148,160,166,167,170,172,173,177,179,182,184,187,189,193,199,202,213,215,219,222,223,226,231,232,237]
[1,1,1,1,3,1,1,1,1,1,3,1,1,1,1,1,1,1,1,1,2,1,1,1,1,1,1,1,1,1,1,1,1,1,1,1,1,1,1,1,1,1,1,1,1]
